[[7, 8, 34, 46, 52, 13, 54, 19, 35, 53, 14, 59, 66, 11, 65, 38, 10, 58], [72, 31, 39, 9, 25, 55, 32, 50, 18, 24, 49, 44, 3], [51, 16, 33, 73, 63, 23, 56, 41, 43, 42, 64, 22, 61, 28], [62, 2, 30, 74, 48, 21, 47, 36, 69, 71, 60, 70], [20, 37, 5, 15, 57, 29, 27, 45, 4, 75, 68, 6, 76, 17, 40, 12, 26, 67]]